NAME : in_house_7_9
TYPE : TSP
DIMENSION : 7
EDGE_WEIGHT_TYPE : EXPLICIT
EDGE_WEIGHT_FORMAT : UPPER_ROW
COMMENT : INVERSION_SHIFT=3
EDGE_WEIGHT_SECTION
18
8
8
23
8
7
6
22
47
3
2
39
44
41
40
49
28
2
35
45
16
